NAME : cvrp-A-U-8-1.981.tour
COMMENT : Length = 981
COMMENT : Found by LKH [Keld Helsgaun] Thu May 17 22:42:39 2018
TYPE : TOUR
DIMENSION : 31
TOUR_SECTION
1
31
23
25
17
21
22
28
19
8
15
3
14
12
4
10
5
18
26
20
2
11
6
9
16
7
13
27
30
29
24
-1
EOF
